c Command line: hgen8 125 80
p cnf 125 201
116 94 104 49 0
65 37 60 3 0
103 26 73 31 0
43 5 48 12 0
78 55 42 38 0
107 24 106 59 0
56 93 119 52 0
79 74 89 69 0
81 7 101 28 0
118 67 98 112 0
1 99 85 92 0
19 86 36 18 0
64 63 82 76 0
23 57 115 80 0
84 20 13 100 0
46 71 108 125 0
32 34 88 22 0
111 33 121 83 0
45 40 96 8 0
10 120 6 102 0
30 16 70 61 0
2 35 90 41 0
27 62 105 58 0
39 4 123 114 0
9 44 29 25 0
50 124 47 66 0
-1 -2 0
-1 -3 0
-1 -4 0
-1 -5 0
-2 -3 0
-2 -4 0
-2 -5 0
-3 -4 0
-3 -5 0
-4 -5 0
-6 -7 0
-6 -8 0
-6 -9 0
-6 -10 0
-7 -8 0
-7 -9 0
-7 -10 0
-8 -9 0
-8 -10 0
-9 -10 0
-12 -13 0
-16 -18 0
-16 -19 0
-16 -20 0
-18 -19 0
-18 -20 0
-19 -20 0
-22 -23 0
-22 -24 0
-22 -25 0
-23 -24 0
-23 -25 0
-24 -25 0
-26 -27 0
-26 -28 0
-26 -29 0
-26 -30 0
-27 -28 0
-27 -29 0
-27 -30 0
-28 -29 0
-28 -30 0
-29 -30 0
-31 -32 0
-31 -33 0
-31 -34 0
-31 -35 0
-32 -33 0
-32 -34 0
-32 -35 0
-33 -34 0
-33 -35 0
-34 -35 0
-36 -37 0
-36 -38 0
-36 -39 0
-36 -40 0
-37 -38 0
-37 -39 0
-37 -40 0
-38 -39 0
-38 -40 0
-39 -40 0
-41 -42 0
-41 -43 0
-41 -44 0
-41 -45 0
-42 -43 0
-42 -44 0
-42 -45 0
-43 -44 0
-43 -45 0
-44 -45 0
-46 -47 0
-46 -48 0
-46 -49 0
-46 -50 0
-47 -48 0
-47 -49 0
-47 -50 0
-48 -49 0
-48 -50 0
-49 -50 0
-52 -55 0
-56 -57 0
-56 -58 0
-56 -59 0
-56 -60 0
-57 -58 0
-57 -59 0
-57 -60 0
-58 -59 0
-58 -60 0
-59 -60 0
-61 -62 0
-61 -63 0
-61 -64 0
-61 -65 0
-62 -63 0
-62 -64 0
-62 -65 0
-63 -64 0
-63 -65 0
-64 -65 0
-66 -67 0
-66 -69 0
-66 -70 0
-67 -69 0
-67 -70 0
-69 -70 0
-71 -73 0
-71 -74 0
-73 -74 0
-76 -78 0
-76 -79 0
-76 -80 0
-78 -79 0
-78 -80 0
-79 -80 0
-81 -82 0
-81 -83 0
-81 -84 0
-81 -85 0
-82 -83 0
-82 -84 0
-82 -85 0
-83 -84 0
-83 -85 0
-84 -85 0
-86 -88 0
-86 -89 0
-86 -90 0
-88 -89 0
-88 -90 0
-89 -90 0
-92 -93 0
-92 -94 0
-93 -94 0
-96 -98 0
-96 -99 0
-96 -100 0
-98 -99 0
-98 -100 0
-99 -100 0
-101 -102 0
-101 -103 0
-101 -104 0
-101 -105 0
-102 -103 0
-102 -104 0
-102 -105 0
-103 -104 0
-103 -105 0
-104 -105 0
-106 -107 0
-106 -108 0
-107 -108 0
-111 -112 0
-111 -114 0
-111 -115 0
-112 -114 0
-112 -115 0
-114 -115 0
-116 -118 0
-116 -119 0
-116 -120 0
-118 -119 0
-118 -120 0
-119 -120 0
-121 -123 0
-121 -124 0
-121 -125 0
-123 -124 0
-123 -125 0
-124 -125 0
